QBPP_HJ-_45_025_20_5
45 128 2271
15 34 21 9 40 38 8 35 41 16 32 32 18 34 8 40 50 20 31 30 13 37 11 21 28 44 2 47 5 34 44 26 32 31 19 21 47 23 14 48 48 36 21 32 40
     0   -74     0   -69     0     0   -39     0  -100     0     0     0   -19     0     0   -79     0     0     0   -41     0    -5   -69   -87     0     0   -71     0   -74   -15     0   -46     0   -84     0     0     0     0   -61     0     0   -79   -77     0     0
   -74     0     0     0     0     0     0   -65   -61     0     0     0     0     0     0     0   -26     0     0     0   -52     0     0     0   -68   -44   -39     0     0     0     0     0     0     0     0    -7     0     0     0     0     0    -9   -69     0     0
     0     0     0     0    -3     0     0  -100     0   -56     0     0     0     0     0   -43   -38     0    -7   -71   -67   -63     0     0     0     0     0   -64     0     0     0     0   -92     0     0     0   -87     0     0     0     0   -20   -39     0     0
   -69     0     0     0     0   -10     0     0     0     0     0     0   -21     0     0     0     0     0   -91     0     0   -32     0     0     0     0     0   -22   -74     0     0   -98     0     0     0     0     0     0     0     0   -84     0     0     0     0
     0     0    -3     0     0     0   -47     0   -95     0     0     0     0     0     0   -14   -46     0     0     0   -83     0     0     0     0     0   -40     0    -8   -32     0     0     0     0     0     0   -10     0     0     0     0   -21    -7     0     0
     0     0     0   -10     0     0   -63     0     0     0     0     0     0     0     0     0     0     0   -82   -73     0     0   -63     0   -13     0     0    -4     0     0     0     0   -27     0     0   -96   -67     0     0   -68     0     0     0     0     0
   -39     0     0     0   -47   -63     0     0     0     0     0     0     0     0     0     0    -2     0     0     0     0   -47     0   -28     0   -50     0     0     0   -58     0     0     0     0     0     0     0     0     0   -73   -45     0     0     0     0
     0   -65  -100     0     0     0     0     0     0   -22     0     0   -59     0     0   -14     0     0     0     0     0     0     0     0     0     0   -14   -37     0   -51     0   -66   -15     0     0     0   -38   -94     0     0   -40     0   -17     0     0
  -100   -61     0     0   -95     0     0     0     0     0     0     0   -84   -31   -95     0     0     0     0   -97     0     0     0     0   -91     0     0   -62   -21     0     0   -24   -41   -47     0     0     0     0   -71     0   -99     0     0     0     0
     0     0   -56     0     0     0     0   -22     0     0     0     0   -36     0     0     0     0     0     0     0     0     0     0   -11     0     0     0   -21     0   -76     0   -85   -90   -18     0     0     0     0     0     0     0   -46   -48     0     0
     0     0     0     0     0     0     0     0     0     0     0     0     0     0     0     0   -39   -22     0     0     0     0     0     0   -60     0     0     0   -57   -97     0     0     0     0     0     0     0     0   -39     0     0     0     0     0   -62
     0     0     0     0     0     0     0     0     0     0     0     0     0     0     0   -14   -27     0     0     0   -77     0     0   -77     0   -75     0     0     0     0     0   -50     0    -2     0     0     0     0   -17   -18     0   -20     0     0     0
   -19     0     0   -21     0     0     0   -59   -84   -36     0     0     0     0   -99   -16   -66   -55     0     0   -20     0     0     0     0   -97     0    -5     0     0     0     0   -47     0     0     0     0     0   -43     0     0   -86   -99     0     0
     0     0     0     0     0     0     0     0   -31     0     0     0     0     0     0     0     0     0     0   -43     0   -99     0     0     0   -39     0     0     0     0     0     0     0     0     0     0     0     0     0  -100     0   -14   -87   -37   -91
     0     0     0     0     0     0     0     0   -95     0     0     0   -99     0     0     0   -86     0   -73     0   -61     0     0   -60     0     0     0     0     0     0   -77     0     0     0     0     0     0     0     0     0     0     0     0     0     0
   -79     0   -43     0   -14     0     0   -14     0     0     0   -14   -16     0     0     0   -52    -1     0   -31   -67     0   -34     0     0   -91     0     0   -96     0     0   -92   -56   -58     0     0     0     0     0     0     0     0     0     0   -93
     0   -26   -38     0   -46     0    -2     0     0     0   -39   -27   -66     0   -86   -52     0   -22     0     0     0     0   -34   -41   -71   -36   -70     0   -29     0     0    -8     0     0     0     0   -72   -48   -80     0     0    -7     0     0     0
     0     0     0     0     0     0     0     0     0     0   -22     0   -55     0     0    -1   -22     0     0   -64   -45   -87     0     0     0   -73     0     0   -96     0   -88    -3   -70    -1   -18     0   -69     0   -78   -80     0     0     0     0   -64
     0     0    -7   -91     0   -82     0     0     0     0     0     0     0     0   -73     0     0     0     0   -29     0     0     0     0   -42     0     0     0     0    -6     0     0     0     0   -98     0   -76     0     0    -6   -82     0     0     0     0
   -41     0   -71     0     0   -73     0     0   -97     0     0     0     0   -43     0   -31     0   -64   -29     0   -96     0   -68     0     0   -14   -59     0     0     0     0   -91     0     0     0     0   -59     0   -27     0     0   -37     0     0     0
     0   -52   -67     0   -83     0     0     0     0     0     0   -77   -20     0   -61   -67     0   -45     0   -96     0     0     0   -74   -58     0   -57     0   -65   -75     0     0     0   -41   -30     0     0   -60     0     0     0     0     0   -53     0
    -5     0   -63   -32     0     0   -47     0     0     0     0     0     0   -99     0     0     0   -87     0     0     0     0     0     0     0     0     0    -6     0     0     0     0     0     0     0     0   -51     0     0     0     0     0     0     0     0
   -69     0     0     0     0   -63     0     0     0     0     0     0     0     0     0   -34   -34     0     0   -68     0     0     0     0     0   -63   -55     0   -32     0    -2     0   -78     0    -9   -98     0     0     0   -17     0     0     0   -96   -64
   -87     0     0     0     0     0   -28     0     0   -11     0   -77     0     0   -60     0   -41     0     0     0   -74     0     0     0     0     0     0     0   -78   -34     0     0     0     0     0     0     0     0    -1     0     0     0     0   -20     0
     0   -68     0     0     0   -13     0     0   -91     0   -60     0     0     0     0     0   -71     0   -42     0   -58     0     0     0     0     0     0     0   -71     0     0     0     0     0     0     0     0     0     0     0     0     0     0     0     0
     0   -44     0     0     0     0   -50     0     0     0     0   -75   -97   -39     0   -91   -36   -73     0   -14     0     0   -63     0     0     0     0   -92   -15     0     0   -63     0     0     0  -100     0     0     0     0   -85     0     0   -71   -39
   -71   -39     0     0   -40     0     0   -14     0     0     0     0     0     0     0     0   -70     0     0   -59   -57     0   -55     0     0     0     0     0     0     0     0   -79     0    -5     0     0     0     0     0   -41     0     0     0     0     0
     0     0   -64   -22     0    -4     0   -37   -62   -21     0     0    -5     0     0     0     0     0     0     0     0    -6     0     0     0   -92     0     0   -28     0   -48     0     0     0     0     0     0     0   -20     0     0     0     0     0     0
   -74     0     0   -74    -8     0     0     0   -21     0   -57     0     0     0     0   -96   -29   -96     0     0   -65     0   -32   -78   -71   -15     0   -28     0     0   -90     0     0     0   -19   -70     0     0     0     0   -19     0   -23   -93     0
   -15     0     0     0   -32     0   -58   -51     0   -76   -97     0     0     0     0     0     0     0    -6     0   -75     0     0   -34     0     0     0     0     0     0   -29     0     0     0     0     0     0     0     0     0     0   -37     0     0     0
     0     0     0     0     0     0     0     0     0     0     0     0     0     0   -77     0     0   -88     0     0     0     0    -2     0     0     0     0   -48   -90   -29     0     0    -9     0     0     0     0     0     0     0     0   -68     0     0     0
   -46     0     0   -98     0     0     0   -66   -24   -85     0   -50     0     0     0   -92    -8    -3     0   -91     0     0     0     0     0   -63   -79     0     0     0     0     0   -57     0     0     0     0   -49     0     0     0     0   -49   -23     0
     0     0   -92     0     0   -27     0   -15   -41   -90     0     0   -47     0     0   -56     0   -70     0     0     0     0   -78     0     0     0     0     0     0     0    -9   -57     0     0     0     0   -20     0     0     0     0     0     0   -33     0
   -84     0     0     0     0     0     0     0   -47   -18     0    -2     0     0     0   -58     0    -1     0     0   -41     0     0     0     0     0    -5     0     0     0     0     0     0     0     0   -62     0     0     0   -38     0     0     0   -12     0
     0     0     0     0     0     0     0     0     0     0     0     0     0     0     0     0     0   -18   -98     0   -30     0    -9     0     0     0     0     0   -19     0     0     0     0     0     0     0     0     0     0   -38   -33   -94     0     0     0
     0    -7     0     0     0   -96     0     0     0     0     0     0     0     0     0     0     0     0     0     0     0     0   -98     0     0  -100     0     0   -70     0     0     0     0   -62     0     0     0     0     0     0     0   -23     0   -93     0
     0     0   -87     0   -10   -67     0   -38     0     0     0     0     0     0     0     0   -72   -69   -76   -59     0   -51     0     0     0     0     0     0     0     0     0     0   -20     0     0     0     0     0     0     0     0     0     0     0     0
     0     0     0     0     0     0     0   -94     0     0     0     0     0     0     0     0   -48     0     0     0   -60     0     0     0     0     0     0     0     0     0     0   -49     0     0     0     0     0     0     0     0     0     0     0     0   -24
   -61     0     0     0     0     0     0     0   -71     0   -39   -17   -43     0     0     0   -80   -78     0   -27     0     0     0    -1     0     0     0   -20     0     0     0     0     0     0     0     0     0     0     0     0   -99   -28     0     0     0
     0     0     0     0     0   -68   -73     0     0     0     0   -18     0  -100     0     0     0   -80    -6     0     0     0   -17     0     0     0   -41     0     0     0     0     0     0   -38   -38     0     0     0     0     0   -50     0   -49     0     0
     0     0     0   -84     0     0   -45   -40   -99     0     0     0     0     0     0     0     0     0   -82     0     0     0     0     0     0   -85     0     0   -19     0     0     0     0     0   -33     0     0     0   -99   -50     0     0     0     0     0
   -79    -9   -20     0   -21     0     0     0     0   -46     0   -20   -86   -14     0     0    -7     0     0   -37     0     0     0     0     0     0     0     0     0   -37   -68     0     0     0   -94   -23     0     0   -28     0     0     0     0    -5     0
   -77   -69   -39     0    -7     0     0   -17     0   -48     0     0   -99   -87     0     0     0     0     0     0     0     0     0     0     0     0     0     0   -23     0     0   -49     0     0     0     0     0     0     0   -49     0     0     0     0   -34
     0     0     0     0     0     0     0     0     0     0     0     0     0   -37     0     0     0     0     0     0   -53     0   -96   -20     0   -71     0     0   -93     0     0   -23   -33   -12     0   -93     0     0     0     0     0    -5     0     0     0
     0     0     0     0     0     0     0     0     0     0   -62     0     0   -91     0   -93     0   -64     0     0     0     0   -64     0     0   -39     0     0     0     0     0     0     0     0     0     0     0   -24     0     0     0     0   -34     0     0
